(declare-const x0 Real)
(assert (<= 1.0 x0))
(declare-const x1 Real)
(assert (<= 1.0 x1))
(declare-const x2 Real)
(assert (<= 90.0 x2))
(declare-const x3 Real)
(assert (<= 3.0 x3))
(declare-const x4 Real)
(assert (<= 1.0 x4))
(declare-const x5 Real)
(assert (<= 85.0 x5))
(declare-const x6 Real)
(assert (<= 145.0 x6))

(assert (<= (- 1.0) (+ (* 0.117563 x3) (- (* (- 0.005954) (^ x3 2.0)) (/ (* 0.883929 x1) x0)))))
(assert (<= (- 1.0) (- (+ (/ (* 1.108800 x0) x1) (/ (* (* 0.130353 x0) x3) x1) (/ (* (* (- 0.006603) x0) (^ x3 2.0)) x1)))))
(assert (<= (- 1.0) (+ (* (- 0.017240) x2) (* 0.019121 x3) (* 0.005660 x5) (* (- 0.000662) (^ x3 2.0)))))
(assert (<= (- 1.0) (- (+ (/ 56.850750 x2) (/ (* 1.087020 x3) x2) (/ (* 0.321750 x5) x2) (/ (* (- 0.037620) (^ x3 2.0)) x2)))))
(assert (<= (- 1.0) (+ (* (- 0.006198) x6) (- (- (/ (* (- 25.125634) x4) x1)) (/ (* 2462.312100 x4) (* x1 x5))))))
(assert (<= (- 1.0) (- (+ (/ 161.189960 x6) (/ (* 5000.0 x4) (* x1 x6)) (/ (* (- 489510.0) x4) (* (* x1 x5) x6))))))
(assert (<= (- 1.0) (- (- (/ (* 0.330000 x6) x2)) (/ 44.333333 x2))))
(assert (<= (- 1.0) (- (- (/ 0.819672 x1)) (/ (* 0.819672 x0) x1))))
(assert (<= (- 1.0) (- (- (/ (* (- 250.0) x4) x1)) (/ (* 24500.0 x4) (* x1 x5)))))
(assert (<= (- 1.0) (+ (* (- 0.010204) x5) (- (/ (* (* 0.000012 x1) x5) x4)))))
(assert (<= (- 1.0) (+ (* (- 0.000063) x0) (* 0.000076 x1) (- (* (* 0.000063 x0) x3)))))
(assert (<= (- 1.0) (+ (* 1.0 x3) (- (- (/ 1.0 x0)) (/ (* 1.220000 x1) x0)))))
(assert (<= (- 1.0) (+ (* (- 0.022556) x2) (* 0.007595 x6))))
(assert (<= (- 1.0) (+ (* 0.000500 x0) (* (- 0.000610) x1))))

(minimize
	(+ (* 1.715000 x0) (* 4.056500 x1) (* 10.0 x4) (+ (* (* 0.035000 x0) x3) (- (* (* 0.063000 x1) x2)) 3000.0))
)
(check-sat)
(get-objectives)
(exit)

